webassembly/ejemplos_dzn/folder14_json_54.dzn
TERM = { '.', 's(2)', 's(5)', 's(4)', 'in_1', 'local_0', 'local_1', 's(1)', 's(0)', 's(3)', 'in_0'};
null = '.';
s = 14;
n = 8;
ndeps = 5;
max_registers_sz = 5;
NR = 2;
registers = [|'local_0', 's(5)', |'local_1', 's(0)'|];
dependencies = [|'i32.load8_s_2', 'call[function_index(0)]_4', |'call[function_index(0)]_4', 'i32.load16_s_5', |'call[function_index(0)]_4', 'i32.load8_u_9', |'i32.load16_s_5', 'i32.store8_12', |'i32.load8_u_9', 'i32.store8_12'|];
GET_ENUM = { GET1, GET2, GET3, GET4, GET5, GET6, GET7};
SET_ENUM = { SET1, SET2, SET3, SET4, SET5, SET6, SET7};
TEE_ENUM = { TEE1, TEE2, TEE3, TEE4, TEE5, TEE6, TEE7};
N = 6;
OP = { 'call[function_index(0)]_4', 'i32.load8_s_2', 'i32.load16_s_5', 'i32.load8_u_9', 'i32.add_0', 'i32.store8_12' };
in_ops = [1, 1, 1, 1, 2, 2 ];
out_ops = [2, 1, 1, 1, 1, 0 ];
in1 = ['in_0', 'in_0', 's(2)', 's(3)', 's(1)', 's(5)' ];
in2 = ['.', '.', '.', '.', 'in_1', 's(4)' ];
in3 = ['.', '.', '.', '.', '.', '.' ];
out1 = ['s(2)', 's(0)', 's(3)', 's(5)', 's(4)', '.' ];
out2 = ['s(1)', '.', '.', '.', '.', '.' ];
out3 = ['.', '.', '.', '.', '.', '.' ];
comm = [false, false, false, false, true, false ];
gas = [1, 1, 1, 1, 1, 1 ];
sz = [1, 1, 1, 1, 1, 1 ];
stor = [true, false, false, false, false, true ];
lb = [ 1, 1, 1, 1, 1, 1 ];
ub = [ 14, 14, 14, 14, 14, 14 ];
startstack = [ 'in_0', 'in_1', null, null, null, null, null, null ];
endstack = [ 's(0)', null, null, null, null, null, null, null ];
