webassembly/ejemplos_results/14/folder14_json_54.txt
=====UNSATISFIABLE=====
% time elapsed: 0.55 s
